NAME: random problem
TYPE: MTSP
COMMENT: MTSP problem for MRS UAV summer school
DIMENSION: 20
NUMBER_OF_ROBOTS: 2
START_TARGET_INDEXES: 1, 2
NEIGHBORHOOD_RADIUS: 2
EDGE_WEIGHT_TYPE: EUC_2D
NODE_COORD_SECTION
1 15.0 -21.0
2 -5.0 -25.0
3 21.3 -8.2
4 22.7 -23.8
5 28.9 17.6
6 4.7 -17.9
7 -21.9 -30.2
8 -22.9 -5.2
9 33.8 -11.0
10 -8.9 -12.7
11 -4.3 6.2
12 -15.4 -12.8
13 -29.5 5.2
14 -34.1 1.4
15 -23.8 -5.7
16 -19.8 -24.0
17 6.1 -20.6
18 30.6 -8.5
19 -5.8 6.0
20 6.6 11.3
EOF
